p cnf 9 27
1 2 4 6 0
9 0
-9 -4 -3 7 0
8 3 0
5 -3 -1 0
-4 4 0
-8 2 -3 0
8 -6 4 0
-8 -5 -2 0
9 -5 -2 0
-1 0
-8 -6 -3 0
4 6 -2 0
9 -5 -2 0
-5 -3 6 7 0
-1 -9 0
-6 -4 -1 0
-6 4 -1 0
-6 2 -9 7 0
-8 -2 0
8 2 0
9 -1 0
9 2 3 0
4 6 -1 -9 0
2 0
-7 4 6 -1 0
9 -9 0
